
 102   30
  10   10   10   10   10   10   10   10   10   10   10   10   10   10   10   10   10   10   10   10   10   10   10   10   10   10   10   10   10   10

   0   0   0   0   0   0   0   0   0   0   0   0   0   0   0   0   0   0   0   0   0   0   0   0   0   0   0   0   0   0   0  23 2 3 4 5 6 7 8 10 11 12 13 14 15 16 18 20 21 22 23 24 25 35 37 
  10   1   4   0   3   0   0   0   0   0   0   0   0   0   0   0   0   3   0   0   0   0   0   0   0   0   1   0   0   4   0  13 74 62 56 54 47 43 40 36 34 33 27 17 9 
  10   4   0   0   0   0   0   0   0   0   0   0   0   0   0   0   0   0   0   0   0   0   0   0   0   0   0   0   0   0   0  19 101 73 65 62 61 60 56 55 54 53 51 50 49 45 44 41 34 33 27 
   3   0   0   0   0   0   0   0   0   1   0   0   0   0   0   0   0   0   0   0   1   0   0   0   0   0   8   0   0   0   0  17 101 80 74 72 67 65 58 55 53 52 50 41 40 39 38 34 32 
   8   0   0   0   0   0   1   0   1   0   4   0   0   0   0   0   0   5   0   0   0   0   0   0   0   0   0   0   0   0   0  21 101 81 80 73 72 67 66 65 64 63 62 59 57 56 55 53 52 45 44 41 38 
   2   0   0   0   0   0   0   0   7   5   6   0   0   0   0   4   3   0   1   0  10   1   0   0   0   0   0   0   0   0   3  14 101 82 81 74 69 66 64 54 53 52 48 45 26 19 
   9   0   0   0   0   0   0   0   0   0   0   2   0   0   0   0   7   0   0   0   0   4   0   0   0   2   0   0   0   0   0  18 86 83 82 81 80 72 67 66 65 62 59 58 54 53 51 41 40 32 
   1   0   0   0   0   0   0   0   0   0   0   0   1   0   3   0   0   0   0   0   7   0   0   1   0   0   0   0   3   0   0  23 101 85 84 83 82 81 80 72 71 70 67 66 65 64 63 60 59 58 57 55 53 49 44 
  10   7   0   0   0   0   5   2   0   0   4   0   0   0   0   0   0   0   0   0   6   8   0   0   0   0   0   0   0   0   0  14 101 87 81 80 73 64 59 58 57 49 45 42 39 31 
   1  10   0   0   0   0   8   0   0   0   0   0   0   0   0   0   5   0   0   0   0   0   0   0   0   0   0   0   0   0   0  11 101 72 67 61 57 56 55 52 51 41 30 
   8   9   0   0   0   0   0   0   0   0   0   9   0   0   0   0   5   0   0   0   0   0   0   0   0   0   0   0   0   0   0  12 101 85 82 73 62 57 55 52 51 48 44 29 
   8   0   0   0   0   0   0   9   5   0   0   0   0   0   0   0   0   0   0   2   0   0   0   0   0   0   0   0   0   0   0  18 98 88 86 80 73 72 71 70 66 64 63 62 58 56 55 53 44 38 
   6   0   0   0   5   0   0   5   0   0   7   0   0   0   0   0   0   9   0   0   0   0   0   0   0   0   0   0   4   0   0  18 101 92 87 86 82 81 74 73 70 67 65 63 59 58 55 54 50 41 
   7   0   0   0   6   0   0   6   0   0   0   0   0   0   0   0   0   0   0   0   0   8   0   0   0   0   0   5   0   0   0  15 101 86 85 81 80 73 72 66 65 61 58 57 53 51 36 
   7   9   4   0   6   0   0   0   7   0   0   0   0   0   0   0   0   4   0   0   0   0   0   0   0   0   0   0   0   0   0  19 97 96 95 87 86 84 82 81 72 69 66 65 64 63 62 57 55 54 52 
   9   0   0   0   0   0   0   6   0   7   0   0   4   0   0   3   3   0   0   0   9   0   0   0   0   0   7   0   0   0   6  17 101 99 96 93 88 84 82 73 72 71 70 64 63 61 54 53 49 
   8   0   5   2   0   0   5   0   0   0   0   6   0   0   0   0   0   0   0   2   0   0   0   0   0   0   0   0   0   0   0   8 85 83 80 71 65 57 51 28 
   5   0   0   0   0   1   0   0   0   0   0   0   0   0   0   4   0   0   0   0  10   0   0   0   1   0   0   5   0   0   0  15 101 94 88 87 85 84 72 68 64 63 60 58 52 51 42 
  10   0   0   0   0   0   0   0   0   0   3   0   0   0   0   0   0   0   0   0   8   0   0   0   0   0   0   0   0   0   0  19 100 96 94 93 92 89 87 86 85 84 80 71 70 68 63 61 58 57 50 
   1  10   0   0   0   0   0   0   9   0   0   0   0   1   0   0   0   0   0   0   0   0   0   0   0   0   0   0   0   0   0  17 99 98 96 92 87 86 84 83 82 81 74 72 65 63 58 55 54 
   1   0   0   0   0   0   0   0   0   0   0   0   0   0   0   0   7   0   0   0   0   0   0   0   6   0   0   0   0   0   0  12 99 94 85 83 81 72 66 65 57 56 53 41 
  10   0   0   0   6   0   0   0   0   0   0   0   6   0   0   0   0   0   0   0   0   0   1  10   0   0   9   0   0   0   0  15 101 100 99 96 95 94 88 84 81 73 72 58 55 53 49 
   2   0   0   0   6   0   0   5   0   0   0   0   8   0   0   0   0   0   0   7   0   0   0   0   0   0   0   0   0   5   0  14 96 95 93 91 86 82 71 70 69 67 64 57 54 53 
   5   0   0   0   0   0   0   0   0   0   3   0   0   0   0   0   0   5   0   0   0   0   5   0   0   0   0   0   0   0   0  19 100 98 96 95 94 93 92 88 86 85 82 78 73 71 69 67 66 63 53 
   4   2   0   0   0   0   0   0   0   6   0   0   0   5   0   0   0   0   0   0   9   0   0   0   0   0   0   0   0   0   5  17 100 99 96 95 91 87 86 85 81 72 71 69 68 64 57 55 51 
   2   0   0   5   0   0   0   0   0   0   0   0   0   2   0   0   0   0   0   6   0   5   4   0   8   0   0   0   0   0   0  16 100 97 96 94 92 88 87 85 84 83 72 68 65 62 60 55 
  10   0   7   0   0   0   0   0   0   0   0   6   7   0   0   0   0   0   6   0   0   0   0   0   0   0   0   0   0   0   0  15 99 96 94 90 86 85 84 81 80 71 68 63 59 58 46 
   9   0   0   0   0   0   0   0   0   0   0   0   0   0   0   0   0   0   0   0   0   0   0   0   0   0   0   3   0   0   0  18 100 99 98 96 95 94 93 92 90 88 86 84 81 78 69 64 63 53 
   3   0   0   0   0   6   0   0   7   0   0   0   0   9   0   0   0   0   0   0   0   0   0   0   0   0   0   0   9   0   0  17 100 99 96 95 94 92 89 86 84 83 80 72 71 68 64 63 58 
   3   0   0   0   6   0   0   0   0   0   0   0   0   0   0   0   0   0   0   0   4   0   0   0   0   0   0   0   0   6   8  16 98 97 95 93 92 89 87 86 82 81 79 78 77 74 63 54 
   2   5   0   0   0   0   0   0   0   0   9   0   3   6   0   0   0   0   0   0   6   0   0   0   0   0   0   0   0   0   0  15 100 99 98 97 96 95 94 92 90 84 71 70 68 63 55 
   8   0   0   0   0   0   0   4   0   0   0   0   0   0   0   0   0   0   0   0   0   0   0   0   0   0   0   0   0   0   0  18 98 96 95 94 93 92 90 89 87 85 84 79 78 71 69 68 64 63 
   9   0   0   0   0   0   5   0   0   0   0   0   0   0   0   0   0   0   0   0   0   0   0   0   0   0   0   0   0   0   0  18 98 97 96 94 93 89 87 86 85 84 79 78 77 72 69 68 66 63 
   1   0   0   0   0   0   0   0   0   0   0   0   0   0   0   0   5   0   0   4   0   0   0   0   0   6   0   0   0   0   0  17 100 99 96 94 93 90 89 87 86 82 81 79 76 70 68 64 59 
   3   0   0   0   0   0   0   0   0   0   5   0   6   0   0   4   0   0   0   0   0   0   0   8   0   0   0   0   0   2   0   7 94 92 87 83 70 55 41 
  10   0   0   0   5   7   0  10   0   0   0   5   0   0   0   7   0   0   0   0   0   0   0   5   0   0   0   0   0   0   0  18 100 99 98 97 96 95 94 93 92 90 89 84 83 79 78 77 75 63 
   2   0   0   0   0   0   0   3   0   0   0   0   0   0   4   0   0   0   0  10   0   5   0   0   0   0   0   0   0   0   0  13 100 99 98 96 94 92 90 88 85 80 76 68 59 
  10   0   0   0   0   0   0   0   0   6   0   0   0   0   0   0   0   4   0   8   0   0   0   0   0   0   0   0   0   0   0  10 96 93 90 89 87 82 79 69 61 54 
   5   4   0   0   0   7   0   0   7   0   0   0   0   0   0   0   0   0   0   0   7   7   9   0   0   7   0   0   8   0   0  13 100 94 93 92 90 89 88 85 79 77 70 69 66 
   6   0   0   6   0   0   0   0   0   0   0   0   0   0   0   5   0   0   0   0   0   3   0   0   0   0   0   0   0   0   0   9 100 97 96 94 79 78 76 61 57 
   5   0   0   0   0   0   0   0   0   0   0   0   0   0   0   0   0   0   0   5   0   0   0   0   0   0   8  10   0  10   1  12 96 95 93 91 90 89 88 84 79 76 71 69 
  10   0   0   0   0   0   0   0   4   0   0   0   0   0   2   0   0   0   0   0   0   0   0   0   0   7   0   0   0   0   0  11 100 93 92 89 86 83 82 78 76 69 67 
   9   0   0   0   0   0   0   0   9   0   0   0   3   0   0   0   8   7   0   0   0   0   0   0   0   0   0   0   0   0   0   8 98 97 95 77 76 69 65 55 
   1   0   9   0  10   0   0   0   0   0   0   0   0   0   0   0   0   0   0   0   0   0   0   0   0   0   0   0   0   0   0  11 100 99 96 94 93 92 90 79 78 77 75 
   4   0   5   0   0   0   0   0   0   0   6   0   0   0   0   0   0   0   0   6   3   0   0   0   0   0   0   0   0   8   0  10 96 95 92 88 86 84 79 76 75 70 
   5   0   0   0   6   0   0   0   0   0   5   5   0   0   0   0   0   0   0   0   0   0   0   1   8   0   0   0   0   0   0  10 98 92 91 89 88 87 78 77 76 75 
  10   0   0   0   0   0   0   0   6   7   0   0   0   0   0   0   0   0   0   0   1   9   0   0   0   0   0   0   6   0   0   8 101 98 95 94 90 79 76 70 
   2   0   0   0   0   0   0   0   0   0   0   0   0   0   0   0   0   0   0   0   0   0   0   0   0   0   0   0   0   0   6   6 90 86 79 78 76 61 
   9   0   0   0   9   0   0   0   0   0   0   9   0   0   7   9   0   0   0   0   0   0   0   0   0   3   0   0   0   0   0   7 98 92 89 86 79 77 69 
   6   0   0   0   0   0   0   0   0   0   0   0   0   0   0   0   0   0   0   0   5   6   0   0   0   0   0   0   0   0   0   7 99 98 97 83 78 77 76 
   4   0   0   0   0   0   0   0   0   0   0   0   0   0   0   0   0   0   0   0   0   0   0   0   0   0   0   0   0   0   0   6 92 79 77 76 75 70 
   5   0   0   0   0   0   0   0   0   0   0   0   0   0   0   0   9   0   0   0   0   0   0   0   0   0   0   0   0   0   4   6 92 91 89 83 77 76 
   4   0   0   0   0   0   6   0   0   0   0   0   0   0   9   0   0   0   0   0   0   0   0   0   0   5   0   0   4   0   0   5 97 89 87 76 68 
   7   0   0   0   0   0   0   0   0   0   0   8   0   0   0   5   0   0   0   0   0   0   0   0   6   0   0   0   0   0   0   5 100 94 85 76 68 
   2   0   0   0   0   8   6   8   0   9   0   0   0   0   0   0   0   0   0   0   0   0   0   0   0   5   0   0   0   0   0   5 93 89 79 78 75 
   5   0   0   7   0   7   0   0   0   0   0   0   0   0   6   0   0   0   0   0   0   0   0   0   0   0   0   0   0   0   0   5 92 89 79 77 75 
   8   0   0   0   0   0   0   0   0   0   0  10   0   0   0   0   0   0   0   0   0   0   0   3   0   0   0   0   0   0   0   4 98 90 88 75 
   8   0   0   0   0   0   0   0   0   0   0   0   0   0   0   0   0   0   0   0   0   0   0   0   0   0   0   0   0   0   0   4 97 79 78 77 
   5   0   0   6   0   0   0   0   0   0   0   0   0   0   6  10   0   7   0   0   0   3   0   0   0   0   0   7   3   0   0   4 97 91 78 77 
   9   0   0   0   0   0   0   0   0   0   0   0   0   5   0   0   0   0   0   0   0   0   0   4   6   0   0   0   0   0   0   4 95 93 77 76 
   7   0   0   0   0   0   0   0   2   0   0   0   0   0   0   4   0   0   0   0   0   0   0   0   0   0   0   0   0   0   0   3 95 77 75 
   7   0   0   0   0   0   0   0   0   7   0   0   0   0   0   7   0   0   0   0   0   0   0   0   7   0   0   0   0   0   0   3 99 93 91 
   8   0   0   0   2   0   0   0   0   0   0   3   0   0   0   0   0   0   0   0   5   0   0   0   0   0   7   0   0   0   0   2 91 76 
   8   0   0   0   0   0   7   0   0   0   0   0   0   0   0   0   0   0   0   0   0   0   0   0   0   0   0   0   0   0   5   2 77 75 
   1   0   0   0   0   0   0   0   0   0   0   0   0   0   0   0  10   0   0   0   0   0   0   9   0   0   0   5   0   0   0   2 91 78 
   2   7   0   0   0   0   0   0   0   0   0   0   0   8   0   0   0   0   0   0   0   0   0   0   0   0   7   7   0   0   0   2 76 75 
   4   0   0  10   0   0   0   0   0   0   0   0   0   0   0   0   0   0   0   0   0   0   0   0   5   0   0   0   0   0   0   2 99 79 
   4   3   0   0   4   0   0   0   8   0   0   0   0   0   0   0   0   0   0   9   0   8   5   0   0   0   0   7   0   0   0   1 75 
   2   0   0   0   0   0   0   0   5   0   0   0   0   0   6   0   0   0   7   0   0   0   0   0   0   0   5   0   0   6   0   1 75 
   7   0   0   0   0   0   0   0   0   0   0   0   0   0   0   6   6   0   0   0   0   0   0   0   0   0   0   0   0   0   0   1 78 
   6   0   0   0   0   0   0   0   0   0   0   0   0   0   8   0   0   0   0   0   0   6   0   0   0   0   0   0   9   0   0   1 77 
   2   0   0   0   0   0   0   5   0   0   0   0   7   0   0   0   0   0   0   0   0   0   0   0   0   0   0   0   0   0   0   1 90 
   3   0   0   0   0   0   0   0   0   0   0   5   0   0   0   0   0   0   0   0   6   0   0   5   0   0   0   0   0   0   0   1 76 
   9   0   0   0   0   6   0   0   5   0   0   0   0   0   0   0   0   0   0   0   0   0   0   0   0   6   0   0   0   0   0   1 88 
   8   0   0   0   9   0   3   0   0   0   9   0   0   0   0   0   0   0   0   8   0   0   0   0   0   7   0   0   0   0   0   1 102
   9   0   4   0   0   0   0   0   0   0   0   0   0   0   0   0   4   0   0   0   0   0   0   0   0   0   0   0   0   0   0   1 102
   6   0   0   0   0   0   0   0   0   8   0   0   0   0   0   0   0   0   0   0   0   0   0   9   0   0   0   0   0   0   0   1 102
   6   0   0   0   0   0   8   0   0   0   0   0   0   9   0   0   0   0   0   0   0   0   0   0   0   0   0   0   0   5   0   1 102
   8   8   0   0   0   0   8   0   5   0   0   0   0   9   0   0   0   0   0   6   0   0   8   0   0   0   0   0   0   0   0   1 102
   3   0   0   0   0   5   0   0   0   4   0   0   0   0   0   8   0   0   0   6   0   0   0   0   0   0   0   0  10   0  10   1 102
   8   0   0   0   0   0   0   0   9   0  10   0   0   0   6   0   3   0   0   0   0   0   0   0   0   0   0   7   0   0   7   1 102
   3   7   0   7   4   0   0   0   0   0   0   6   0   0   0   0   0   0   0   0   0   0  10   0   0   0   3   0   0   0   0   1 102
   1   0   0   0   0   0   5   0   0   0   0   0   0   0   0   0   0   0   0   0   0   0   0   0   0   0   0   0   0   0   0   1 102
   3   0   0   5   0   0   0   0   0   0   7   7   0   0   0   0   4   0   0   0   0   0   0   0   0  10   0   0   0   0  10   1 102
   2   0   0   0   0   7   0   9   0   0   0   0   0   0  10   0   0   0   0   0   0   7   0   0   0   0   5   0   4   0   0   1 102
   8   0   6   0   4   0   0   0   0   0   0   0  10   0   0   0   0   6   0   0   0   0   0   0   0   0   0   0   0   0   0   1 102
   7   0   0   0   0   0   0   0   0   0   0   0   0   0   4   0   0   0   7   0   5   0   0   0   0   0   0   0   0   0   0   1 102
   1   0   0   0   0   0   0   0   0   0   0   0   0   0   0   0   0   0   0   0   7   0   0   8   0   0   6   0   0   0   0   1 102
   6   0   4   0   0   0   9   0   6   0   0   0   0   0   0   0   0   0   0   0   0   0   0   0   5   0   6   0   0   0   0   1 102
   8   4   0   0   0   0   0   0   0   0   0   0   0   0   0   0   0   0   5   0   0   0   0   0   0   0   0   0   0   0   0   1 102
   8   0   0   0   0   0   0   6   0   0   0   0   0   0   0   0   0   0   0   0   0   0   0   7   0   0   0   0   0   0   0   1 102
   3   0   0   0   7   0   6   0   0   0   0   0   0   0   0   4   7   0   0   5   0   0   0   0   0   0   0   0   0   0   0   1 102
   3   0   0   0   0   0   0   4   0   0   0   0   0   0   0   0   7   0   9   0   5   0   0   0   0   0   0   0   0   0   0   1 102
   7   0   0   0   0   0   8   0   0   0   6   0   0   0   0   0   9   0   0   5   6   0   0   8   0   0   0   0   0   0   0   1 102
  10   0   6   0   0   0   0   7   0   0   0   0   0   0   0   0   0   0   0   0   0   0   0   0   8   0   0   3   0   0   0   1 102
   1   0   0   0   0   0   0   0   0   0   7   0   0   0   0   0   7   0   0   0   0   0   0   0   0   0   0   0   0   0   0   1 102
   3   0  10   0   0   0   0   0   0   0   7   0   7   0   7   0   5   0   0   0   0  10   0   0   0   0   0   0   0   8   0   1 102
   7   0   0   0  10   0   0   8   0   0   0   9   0   0   0   6   0  10   0   0   0   0   0   0   0   0   0  10   0   0   7   1 102
  10   0   0   6   0   0   0   0   0   0   0   0   0   0   0   0   0   0   0   0   0   0   0   0   0   0   0   0   0   0   0   1 102
   7   0   0   0   0   0   0   5   6   0   4   5  10   0   0   0   0   0   7   0   0   0   0   0   0   0   0   3   0   0   0   1 102
   7   0   8   0   0   0   0   0   0   0   0   1   0   0   0  10   0   0   0   7   0   0   0   0   0   8   6   0   0   0   0   1 102
   0   0   0   0   0   0   0   0   0   0   0   0   0   0   0   0   0   0   0   0   0   0   0   0   0   0   0   0   0   0   0   0 
